solving instance uflp nlass holmberg 68 log
Couenne 0.5.8 -- an Open-Source solver for Mixed Integer Nonlinear Optimization
Mailing list: couenne@list.coin-or.org
Instructions: http://www.coin-or.org/Couenne
couenne: 
ANALYSIS TEST: Reading problem: 0.0 seconds
Reformulating problem: 123.6 seconds
NLP0012I 
              Num      Status      Obj             It       time                 Location
NLP0014I             1         OPT 23882     1106 1192.9997
Couenne: new cutoff value 2.3882012331e+04 (2892.38 seconds)
NLP0014I             2         OPT 23882       89 16.642486
Couenne: new cutoff value 2.3882000007e+04 (2909.05 seconds)
Loaded instance "/tmp/jl_vTvVRO/model.nl"
Constraints:        18200
Variables:          18030 (6030 integer)
Auxiliaries:        12201 (0 integer)

Coin0506I Presolve 53991 (-6210) rows, 23821 (-6410) columns and 119611 (-12620) elements
Clp0006I 0  Obj 0 Primal inf 1803.0737 (200) Dual inf 8.306042e+13 (6000)
Clp0006I 494  Obj 1152 Primal inf 1712.92 (190) Dual inf 8.214512e+13 (5748)
Clp0006I 988  Obj 1565 Primal inf 1685.8739 (187) Dual inf 3.613027e+08 (5664)
Clp0006I 1482  Obj 2999 Primal inf 1622.7663 (180) Dual inf 3.6000485e+08 (5468)
Clp0006I 1976  Obj 3699 Primal inf 1595.7202 (177) Dual inf 3.6641398e+08 (5384)
Clp0006I 2472  Obj 5428 Primal inf 1312.2219 (169) Dual inf 3.2161746e+08 (5363)
Clp0006I 2969  Obj 6276 Primal inf 1246.5004 (163) Dual inf 3.1343093e+08 (5138)
Clp0006I 3530  Obj 20902 Primal inf 347.00745 (42) Dual inf 88200494 (2670)
Clp0006I 4059  Obj 25190 Primal inf 20.017419 (2) Dual inf 47647651 (2446)
Clp0006I 4553  Obj 25190 Primal inf 20.017419 (2) Dual inf 52209834 (2446)
Clp0006I 5047  Obj 25190 Primal inf 20.017419 (2) Dual inf 31075105 (2332)
Clp0006I 5541  Obj 25190 Primal inf 20.017419 (2) Dual inf 25965445 (2069)
Clp0006I 6035  Obj 25190 Primal inf 20.017419 (2) Dual inf 28511337 (1995)
Clp0006I 6529  Obj 25196 Primal inf 15.748431 (1) Dual inf 39431934 (2253)
Clp0006I 7023  Obj 25196 Primal inf 15.748431 (1) Dual inf 36809367 (2224)
Clp0006I 7517  Obj 25196 Primal inf 15.748431 (1) Dual inf 25169532 (2031)
Clp0006I 8011  Obj 25147.409 Primal inf 15.594478 (2) Dual inf 26801516 (1886)
Clp0006I 8505  Obj 23396.983 Dual inf 34892.601 (1632)
Clp0006I 8999  Obj 23396.983 Dual inf 34017.376 (1442)
Clp0006I 9493  Obj 23396.983 Dual inf 27670.125 (1209)
Clp0006I 9987  Obj 23137.9 Dual inf 24913.069 (1101)
Clp0006I 10481  Obj 22846 Dual inf 18330.03 (984)
Clp0006I 10975  Obj 22562 Dual inf 16247.683 (931)
Clp0006I 11473  Obj 21211 Dual inf 14369.806 (889)
Clp0006I 11969  Obj 20758 Dual inf 10328.144 (890)
Clp0006I 12463  Obj 20758 Dual inf 6321.1684 (619)
Clp0006I 12959  Obj 20549 Dual inf 1477.5088 (250)
Clp0006I 13287  Obj 20530
Clp0000I Optimal - objective value 20530
Clp0032I Optimal objective 20530 - 13287 iterations time 4.272, Presolve 0.34
Clp0000I Optimal - objective value 20530
Couenne: new cutoff value 2.0530000000e+04 (2921.98 seconds)
Cbc0012I Integer solution of 23882 found by Couenne Rounding NLP after 0 iterations and 0 nodes (0.13 seconds)
NLP Heuristic: NLP0014I             3         OPT 23649      112 56.29468
no solution.
Clp0000I Optimal - objective value 20530
Optimality Based BT: 0 improved bounds
Probing: 33 improved bounds
NLP Heuristic: time limit reached.
Cbc0013I At root node, 0 cuts changed objective from 20530 to 20530 in 1 passes
Cbc0014I Cut generator 0 (Couenne convexifier cuts) - 0 row cuts average 0.0 elements, 1 column cuts (1 active)
Cbc0004I Integer solution of 20530 found after 0 iterations and 0 nodes (485.81 seconds)
Cbc0001I Search completed - best objective 20529.99999999999, took 0 iterations and 0 nodes (485.92 seconds)
Cbc0035I Maximum depth 0, 0 variables fixed on reduced cost

 	"Finished"

Linearization cuts added at root node:      60201
Linearization cuts added in total:          60201  (separation time: 0.389591s)
Total solve time:                         490.355s (490.355s in branch-and-bound)
Lower bound:                                20530
Upper bound:                                20530  (gap: 0.00%)
Branch-and-bound nodes:                         0
Stats: /tmp/jl_vTvVRO/model.nl 18030 [var] 6030 [int] 18200 [con] 12201 [aux]  60201 [root]    60201 [tot] 0.389591 [sep]  490.355 [time]  490.445 [bb]         2.053000e+04 [lower]         2.053000e+04 [upper]       0 [nodes]
Performance of                           FBBT:	   0.523718s,        4 runs. fix:          0 shrnk:    28013.5 ubd:          0 2ubd:          0 infeas:          0
Performance of                           OBBT:	    8.86288s,        1 runs. fix:          0 shrnk:          0 ubd:          0 2ubd:          0 infeas:          0
ERROR: LoadError: MathOptInterface.GetAttributeNotAllowed{MathOptInterface.ObjectiveBound}: Getting attribute MathOptInterface.ObjectiveBound() cannot be performed: AmplNLWriter.Optimizer does not support getting the attribute MathOptInterface.ObjectiveBound(). You may want to use a `CachingOptimizer` in `AUTOMATIC` mode or you may need to call `reset_optimizer` before doing this operation if the `CachingOptimizer` is in `MANUAL` mode.
Stacktrace:
  [1] get_fallback(model::AmplNLWriter.Optimizer, attr::MathOptInterface.ObjectiveBound)
    @ MathOptInterface ~/.julia/packages/MathOptInterface/gLl4d/src/attributes.jl:409
  [2] get(::AmplNLWriter.Optimizer, ::MathOptInterface.ObjectiveBound)
    @ MathOptInterface ~/.julia/packages/MathOptInterface/gLl4d/src/attributes.jl:390
  [3] _get_model_attribute(model::MathOptInterface.Utilities.CachingOptimizer{AmplNLWriter.Optimizer, MathOptInterface.Utilities.UniversalFallback{MathOptInterface.Utilities.Model{Float64}}}, attr::MathOptInterface.ObjectiveBound)
    @ MathOptInterface.Utilities ~/.julia/packages/MathOptInterface/gLl4d/src/Utilities/cachingoptimizer.jl:865
  [4] get(model::MathOptInterface.Utilities.CachingOptimizer{AmplNLWriter.Optimizer, MathOptInterface.Utilities.UniversalFallback{MathOptInterface.Utilities.Model{Float64}}}, attr::MathOptInterface.ObjectiveBound)
    @ MathOptInterface.Utilities ~/.julia/packages/MathOptInterface/gLl4d/src/Utilities/cachingoptimizer.jl:900
  [5] get(b::MathOptInterface.Bridges.LazyBridgeOptimizer{MathOptInterface.Utilities.CachingOptimizer{AmplNLWriter.Optimizer, MathOptInterface.Utilities.UniversalFallback{MathOptInterface.Utilities.Model{Float64}}}}, attr::MathOptInterface.ObjectiveBound)
    @ MathOptInterface.Bridges ~/.julia/packages/MathOptInterface/gLl4d/src/Bridges/bridge_optimizer.jl:889
  [6] _get_model_attribute(model::MathOptInterface.Utilities.CachingOptimizer{MathOptInterface.Bridges.LazyBridgeOptimizer{MathOptInterface.Utilities.CachingOptimizer{AmplNLWriter.Optimizer, MathOptInterface.Utilities.UniversalFallback{MathOptInterface.Utilities.Model{Float64}}}}, MathOptInterface.Utilities.UniversalFallback{MathOptInterface.Utilities.Model{Float64}}}, attr::MathOptInterface.ObjectiveBound)
    @ MathOptInterface.Utilities ~/.julia/packages/MathOptInterface/gLl4d/src/Utilities/cachingoptimizer.jl:865
  [7] get(model::MathOptInterface.Utilities.CachingOptimizer{MathOptInterface.Bridges.LazyBridgeOptimizer{MathOptInterface.Utilities.CachingOptimizer{AmplNLWriter.Optimizer, MathOptInterface.Utilities.UniversalFallback{MathOptInterface.Utilities.Model{Float64}}}}, MathOptInterface.Utilities.UniversalFallback{MathOptInterface.Utilities.Model{Float64}}}, attr::MathOptInterface.ObjectiveBound)
    @ MathOptInterface.Utilities ~/.julia/packages/MathOptInterface/gLl4d/src/Utilities/cachingoptimizer.jl:900
  [8] _moi_get_result(model::MathOptInterface.Utilities.CachingOptimizer{MathOptInterface.Bridges.LazyBridgeOptimizer{MathOptInterface.Utilities.CachingOptimizer{AmplNLWriter.Optimizer, MathOptInterface.Utilities.UniversalFallback{MathOptInterface.Utilities.Model{Float64}}}}, MathOptInterface.Utilities.UniversalFallback{MathOptInterface.Utilities.Model{Float64}}}, args::MathOptInterface.ObjectiveBound)
    @ JuMP ~/.julia/packages/JuMP/i68GU/src/optimizer_interface.jl:1053
  [9] get(model::JuMP.Model, attr::MathOptInterface.ObjectiveBound)
    @ JuMP ~/.julia/packages/JuMP/i68GU/src/optimizer_interface.jl:1073
 [10] objective_bound(model::JuMP.Model)
    @ JuMP ~/.julia/packages/JuMP/i68GU/src/objective.jl:78
 [11] nl_uflp_nlass(filename::String, cost::Symbol, solver::AmplNLWriter.Optimizer, solver_params::Vector{Any}; solve::Bool, write_nl::Bool, with_cap_constraint::Bool)
    @ IterativePWLB ~/git/ipwlb/code/sources/IterativePWLB/src/nlsolver.jl:885
 [12] top-level scope
    @ ~/git/ipwlb/code/sources/IterativePWLB/test/couenne/uflp_nlass/script.jl:14
in expression starting at /home/ccontard/git/ipwlb/code/sources/IterativePWLB/test/couenne/uflp_nlass/script.jl:14
reading holmberg data file /home/ccontard/git/ipwlb/code/instances/uflp/holmberg/p68
